
--- Job ColorCounties2.gms Start 02/11/22 10:54:21 38.1.0 a1a3b545 WEX-WEI x86 64bit/MS Windows
--- Applying:
    C:\GAMS\38\gmsprmNT.txt
--- GAMS Parameters defined
    Input C:\projects\OptimizationModels\GraphColoring\minspread\ColorCounties2.gms
    PageWidth 140
    PageSize 0
    PageContr 3
    Action CE
    ScrDir C:\projects\OptimizationModels\GraphColoring\minspread\225a\
    SysDir C:\GAMS\38\
    WorkDir C:\projects\OptimizationModels\GraphColoring\minspread\
    LogOption 3
    DFormat 0
    TFormat 0
    ErrorLog 99
    IDE 1
Licensee: Eval License                                   G211206|0002CO-GEN
          Amsterdam Optimization Modeling Group,                     DCE378
          C:\Users\erwin\OneDrive\Documents\GAMS\gamslice.txt
          License Admin: Erwin Kalvelagen, info@amsterdamoptimization.com  
          Evaluation license: Not for commercial or production use
Processor information: 1 socket(s), 8 core(s), and 16 thread(s) available
GAMS 38.1.0   Copyright (C) 1987-2022 GAMS Development. All rights reserved
--- Starting compilation
--- ColorCounties2.gms(30) 3 Mb
--- . data.inc(6188) 4 Mb
--- ColorCounties2.gms(173) 4 Mb
--- $echo File C:\projects\OptimizationModels\GraphColoring\minspread\USCountyMap2.html
--- ColorCounties2.gms(295) 4 Mb
--- Starting execution: elapsed 0:00:00.075
--- ColorCounties2.gms(6297) 5 Mb
--- Generating MIP model color
--- ColorCounties2.gms(6298) 18 Mb
---   41,150 rows  12,891 columns  101,623 non-zeroes
---   12,884 discrete-columns
--- Executing CPLEX (Solvelink=2): elapsed 0:00:00.180

IBM ILOG CPLEX   38.1.0 a1a3b545 Jan 31, 2022          WEI x86 64bit/MS Window

--- GAMS/Cplex Link licensed for continuous and discrete problems.
--- GMO setup time: 0.00s
--- Space for names approximately 1.75 Mb
--- Use option 'names no' to turn use of names off
--- GMO memory 11.08 Mb (peak 11.18 Mb)
--- Dictionary memory 0.00 Mb
--- Cplex 20.1.0.1 link memory 0.72 Mb (peak 3.93 Mb)
--- Starting Cplex

Version identifier: 20.1.0.1 | 2021-04-07 | 3a818710c
CPXPARAM_Advance                                 0
CPXPARAM_Threads                                 16
CPXPARAM_Parallel                                1
CPXPARAM_MIP_Display                             4
CPXPARAM_MIP_Pool_Capacity                       0
CPXPARAM_MIP_Tolerances_AbsMIPGap                0
CPXPARAM_MIP_Tolerances_MIPGap                   0
Generic callback                                 0x50
Tried aggregator 2 times.
MIP Presolve eliminated 19391 rows and 25 columns.
MIP Presolve modified 18440 coefficients.
Aggregator did 3 substitutions.
Reduced MIP has 21755 rows, 12863 columns, and 82118 nonzeros.
Reduced MIP has 12857 binaries, 0 generals, 0 SOSs, and 0 indicators.
Presolve time = 0.09 sec. (120.46 ticks)
Probing time = 0.00 sec. (4.05 ticks)
Tried aggregator 1 time.
Detecting symmetries...
Reduced MIP has 21755 rows, 12863 columns, and 82118 nonzeros.
Reduced MIP has 12857 binaries, 6 generals, 0 SOSs, and 0 indicators.
Presolve time = 0.05 sec. (64.08 ticks)
Probing time = 0.00 sec. (4.03 ticks)
Clique table members: 21743.
MIP emphasis: balance optimality and feasibility.
MIP search method: dynamic search.
Parallel mode: deterministic, using up to 16 threads.
Parallel mode: deterministic, using up to 3 threads for parallel tasks at root LP.
Parallel mode: deterministic, using up to 13 threads for concurrent optimization:
 * Starting dual Simplex on 1 thread...
 * Starting Barrier on 11 threads...
 * Starting primal Simplex on 1 thread...
Tried aggregator 1 time.
No LP presolve or aggregator reductions.
Presolve time = 0.02 sec. (11.10 ticks)
Initializing dual steep norms . . .

Iteration log . . .
Iteration:     1   Dual objective     =         -1729.000000
Perturbation started.
Iteration:   101   Dual objective     =         -1729.000000
Iteration:   443   Dual objective     =             0.001179
Iteration:  1053   Dual objective     =             0.001247
Iteration:  1574   Dual objective     =             0.001287
Iteration:  2105   Dual objective     =             0.001328
Iteration:  2647   Dual objective     =             0.001374
Iteration:  3153   Dual objective     =             0.001406
Iteration:  3661   Dual objective     =             0.001435
Iteration:  4155   Dual objective     =             0.001463
Iteration:  4615   Dual objective     =             0.001486
Iteration:  5043   Dual objective     =             0.001503
Iteration:  5477   Dual objective     =             0.001520
Iteration:  5904   Dual objective     =             0.001536
Iteration:  6200   Dual objective     =             0.001545
Iteration:  6467   Dual objective     =             0.001555
Iteration:  6747   Dual objective     =             0.001566
Iteration:  7069   Dual objective     =             0.001580
Iteration:  7286   Dual objective     =             0.001588
Iteration:  7557   Dual objective     =             0.001597
Iteration:  7821   Dual objective     =             0.001606
Iteration:  8077   Dual objective     =             0.001613
Iteration:  8277   Dual objective     =             0.001619
Iteration:  8494   Dual objective     =             0.001626
Iteration:  8726   Dual objective     =             0.001633
Iteration:  8920   Dual objective     =             0.001637
Iteration:  9123   Dual objective     =             0.001643
Iteration:  9309   Dual objective     =             0.001646
Iteration:  9459   Dual objective     =             0.001649
Iteration:  9611   Dual objective     =             0.001652
Removing perturbation.

Barrier solved model.

Root relaxation solution time = 1.69 sec. (1979.78 ticks)

        Nodes                                         Cuts/
   Node  Left     Objective  IInf  Best Integer    Best Bound    ItCnt     Gap

      0     0        0.0000  9912                      0.0000        7         
      0     0        0.0000  6741                    Cuts: 96     6533         
      0     0        0.0000  7255                  Cuts: 1326    25716         
      0     0        0.0000  4823                    Cuts: 47    26648         
      0     0        0.0000  5616                   Cuts: 965    35791         
      0     2        0.0000  3312                      0.0000    35791         
Elapsed time = 110.76 sec. (93579.89 ticks, tree = 0.02 MB)
      1     3        0.3333  2662                      0.0000    67022         
      2     3        0.3333  2513                      0.0000    68999         
      3     4        1.0000  2523                      0.0000    69360         
      5     6        1.0000  2350                      0.0000    70600         
      7     8        1.0000  2163                      0.0000    71709         
      8     9        1.0000  2157                      0.0000    72139         
     10    11        1.0000  2136                      0.0000    73015         
     13    13        1.0000  2005                      0.0000    74465         
                                                     Cuts: 41                  
     15    16        1.0000  2244                      0.0000    76551         
                                                      Cuts: 9                  
     52    29        1.0000  1684                      0.0000    81529         
                                                     Cuts: 13                  
Elapsed time = 135.06 sec. (122402.74 ticks, tree = 0.41 MB)
    103    53        1.0000  1485                      0.0000   100065         
                                                      Cuts: 6                  
    197   122        1.0000  1853                      0.0000   130779         
    310   223        1.0000  1671                      0.0000   167786         
    447   270        1.0000  1387                      0.0000   194040         
    579   485        1.0000  1460                      0.0000   287096         
    705   567        1.0000  1548                      0.0000   326798         
    851   691        1.0000  1435                      0.0000   384384         
   1000   768        1.0000  2093                      0.0000   414228         
   1129   926        1.0000  2004                      0.0000   484344         
   1303  1074        1.0000  1060                      0.0000   549074         
Elapsed time = 159.23 sec. (131990.83 ticks, tree = 20.33 MB)
   1428  1204        1.0000  1404                      0.0000   627686         
   1577  1355        1.0000  1324                      0.0000   693445         
                                                     Cuts: 15                  
   1736  1461        1.0000  1956                      0.0000   729113         
   1919  1589        1.0000  1061                      0.0000   762012         
                                                      Cuts: 9                  
   2117  1814        1.0000   867                      0.0000   862477         
   2303  1949        1.0000   927                      0.0000   928053         
   2457  2031        1.0000  1311                      0.0000   968271         
   2612  2390        1.0000   773                      0.0000  1145661         
   2782  2487        1.0000   880                      0.0000  1201904         
   2988  2542        1.0000  1063                      0.0000  1219870         
Elapsed time = 181.81 sec. (141574.36 ticks, tree = 35.52 MB)
   3149  2858        1.0000  1254                      0.0000  1405283         
   3342  2941        1.0000   186                      0.0000  1452977         
                                                      Cuts: 7                  
   3465  3050        1.0000  1285                      0.0000  1513057         
                                                     Cuts: 18                  
   3574  3155        1.0000   634                      0.0000  1589861         
   3709  3342        1.0000   463                      0.0000  1714069         
   3834  3466        1.0000   725                      0.0000  1788752         
                                                     Cuts: 26                  
   3935  3501    infeasible                            0.0000  1811271         
   4027  3637        1.0000  2001                      0.0000  1913439         
                                                     Cuts: 13                  
   4110  3665        1.0000  1341                      1.0000  1937108         
                                                     Cuts: 14                  
   4193  3719        1.0000   332                      1.0000  2057008         
                                                     Cuts: 16                  
Elapsed time = 204.95 sec. (151159.70 ticks, tree = 44.73 MB)
   4296  3859        1.0000   662                      1.0000  2163959         
                                                      Cuts: 2                  
   4425  3939        1.0000  1502                      1.0000  2209270         
   4563  3940        1.0000  1420                      1.0000  2215474         
   4712  4052    infeasible                            1.0000  2288993         
                                                      Cuts: 5                  
   4891  4195        1.0000   142                      1.0000  2381202         
   5066  4319        1.0000  1347                      1.0000  2456801         
                                                      Cuts: 9                  
   5248  4367        1.0000  1042                      1.0000  2481594         
                                                     Cuts: 11                  
   5433  4564        1.0000   815                      1.0000  2569053         
   5633  4733        1.0000  2078                      1.0000  2653338         
                                                   Cliques: 1                  
   5829  4980        1.0000  1214                      1.0000  2745435         
Elapsed time = 232.81 sec. (160742.58 ticks, tree = 54.69 MB)
   6056  5099        1.0000   988                      1.0000  2813287         
                                                   Cliques: 6                  
   6273  5216        1.0000  1064                      1.0000  2855504         
                                                   Cliques: 4                  
*  6431  5506      integral     0        1.0000        1.0000  2984079    0.00%
Found incumbent of value 1.000000 after 240.30 sec. (163252.31 ticks)
   6494  5521        1.0000   510        1.0000        1.0000  2975912    0.00%
                                                   Cliques: 5                  
   6569  5614        1.0000  1132        1.0000        1.0000  3017621    0.00%
   6577  4560        1.0000  2065        1.0000        1.0000  2586285    0.00%
                                                      Cuts: 8                  
   6579  4085        1.0000  2254        1.0000        1.0000  2298359    0.00%

Clique cuts applied:  489
Cover cuts applied:  17
Mixed integer rounding cuts applied:  4
Zero-half cuts applied:  137

Root node processing (before b&c):
  Real time             =  110.61 sec. (93336.29 ticks)
Parallel b&c, 16 threads:
  Real time             =  133.25 sec. (74722.06 ticks)
  Sync time (average)   =   39.93 sec.
  Wait time (average)   =    0.00 sec.
                          ------------
Total (root+branch&cut) =  243.86 sec. (168058.35 ticks)

--- MIP status (101): integer optimal solution.
--- Cplex Time: 243.86sec (det. 168058.39 ticks)

--- Fixing integer variables and solving final LP...

Version identifier: 20.1.0.1 | 2021-04-07 | 3a818710c
CPXPARAM_Advance                                 2
CPXPARAM_Threads                                 16
CPXPARAM_Parallel                                1
CPXPARAM_MIP_Display                             4
CPXPARAM_MIP_Pool_Capacity                       0
CPXPARAM_MIP_Tolerances_AbsMIPGap                0
CPXPARAM_MIP_Tolerances_MIPGap                   0
Parallel mode: deterministic, using up to 16 threads for concurrent optimization:
 * Starting dual Simplex on 1 thread...
 * Starting Barrier on 14 threads...
 * Starting primal Simplex on 1 thread...
Tried aggregator 1 time.
LP Presolve eliminated 41149 rows and 12891 columns.
All rows and columns eliminated.
Presolve time = 0.01 sec. (14.15 ticks)

Dual simplex solved model.


--- Fixed MIP status (1): optimal.
--- Cplex Time: 0.12sec (det. 27.09 ticks)


Proven optimal solution
MIP Solution:            1.000000    (3173693 iterations, 6580 nodes)
Final Solve:             1.000000    (0 iterations)

Best possible:           1.000000
Absolute gap:            0.000000
Relative gap:            0.000000

--- Reading solution for model color
--- Executing after solve: elapsed 0:04:04.323
--- ColorCounties2.gms(6358) 18 Mb
Shell Execute    38.1.0 a1a3b545 Jan 31, 2022          VS8 x86 32bit/MS Window
--- Putfile f C:\projects\OptimizationModels\GraphColoring\minspread\results.js
*** Status: Normal completion
--- Job ColorCounties2.gms Stop 02/11/22 10:58:26 elapsed 0:04:04.418
